0 0 0 0
0 1 0 0
0 2 2 0
0 3 0 0
0 4 0 1
0 5 0 2
0 6 0 5
0 7 0 10
0 8 0 13
0 9 2 5
0 10 0 7
0 11 0 2
0 12 0 16
0 13 0 13
0 14 0 16
0 15 0 9
0 16 0 13
0 17 0 14
0 18 0 17
0 19 0 19
0 20 2 17
0 21 0 1
0 22 0 5
0 23 0 22
0 24 0 19
0 25 0 26
0 26 0 11
0 27 0 17
0 28 0 27
0 29 0 19
0 30 0 28
0 31 0 29
